342,67
560,494
868,501
681,196
822,600
606,-68
926,887
704,554
296,345
681,586
539,452
381,406
914,173
672,347
742,21
609,458
269,107
765,-127
540,600
591,406
858,434
425,323
510,351
786,551
755,178
307,596
681,376
231,406
820,833
736,235
491,32
838,891
474,374
1001,569
921,284
663,349
681,616
681,766
